files/upTests/set-of-sets_nested_literals/0002.eprime
language ESSENCE' 1.0

find x_SetExplicit_SetExplicitVarSize_tuple1:
        matrix indexed by [int(1..1), int(1..2)] of bool
find x_SetExplicit_SetExplicitVarSize_tuple2_SetExplicitVarSizeWithDefault:
        matrix indexed by [int(1..1), int(1..2), int(1..2)] of int(1..3)
such that
    x_SetExplicit_SetExplicitVarSize_tuple1[1, 1]
    /\
    x_SetExplicit_SetExplicitVarSize_tuple1[1, 2]
    ->
    (forAll v__0 : int(1..2)
         . x_SetExplicit_SetExplicitVarSize_tuple2_SetExplicitVarSizeWithDefault[1,
                                                                                 1,
                                                                                 v__0]
           !=
           1
           ->
           false)
    /\
    (forAll v__0 : int(1..2)
         . x_SetExplicit_SetExplicitVarSize_tuple2_SetExplicitVarSizeWithDefault[1,
                                                                                 2,
                                                                                 v__0]
           !=
           1
           ->
           false)
    \/
    x_SetExplicit_SetExplicitVarSize_tuple2_SetExplicitVarSizeWithDefault[1, 1, ..]
    <lex
    x_SetExplicit_SetExplicitVarSize_tuple2_SetExplicitVarSizeWithDefault[1, 2, ..],
    x_SetExplicit_SetExplicitVarSize_tuple1[1, 1]
    <=
    x_SetExplicit_SetExplicitVarSize_tuple1[1, 2],
    (sum v__0 : int(1..2) . x_SetExplicit_SetExplicitVarSize_tuple1[1, v__0]) >= 1,
    exists v__0 : int(1..2)
        . x_SetExplicit_SetExplicitVarSize_tuple1[1, v__0]
          /\
          ((forAll v__1 : int(1..2)
                . x_SetExplicit_SetExplicitVarSize_tuple2_SetExplicitVarSizeWithDefault[1,
                                                                                        v__0,
                                                                                        v__1]
                  !=
                  1
                  ->
                  2
                  =
                  x_SetExplicit_SetExplicitVarSize_tuple2_SetExplicitVarSizeWithDefault[1,
                                                                                        v__0,
                                                                                        v__1])
           /\
           (exists v__1 : int(1..2)
                . x_SetExplicit_SetExplicitVarSize_tuple2_SetExplicitVarSizeWithDefault[1,
                                                                                        v__0,
                                                                                        v__1]
                  !=
                  1
                  /\
                  x_SetExplicit_SetExplicitVarSize_tuple2_SetExplicitVarSizeWithDefault[1,
                                                                                        v__0,
                                                                                        v__1]
                  =
                  2)),
    exists v__0 : int(1..2)
        . x_SetExplicit_SetExplicitVarSize_tuple1[1, v__0]
          /\
          ((forAll v__1 : int(1..2)
                . x_SetExplicit_SetExplicitVarSize_tuple2_SetExplicitVarSizeWithDefault[1,
                                                                                        v__0,
                                                                                        v__1]
                  !=
                  1
                  ->
                  2
                  =
                  x_SetExplicit_SetExplicitVarSize_tuple2_SetExplicitVarSizeWithDefault[1,
                                                                                        v__0,
                                                                                        v__1]
                  \/
                  3
                  =
                  x_SetExplicit_SetExplicitVarSize_tuple2_SetExplicitVarSizeWithDefault[1,
                                                                                        v__0,
                                                                                        v__1])
           /\
           ((exists v__1 : int(1..2)
                 . x_SetExplicit_SetExplicitVarSize_tuple2_SetExplicitVarSizeWithDefault[1,
                                                                                         v__0,
                                                                                         v__1]
                   !=
                   1
                   /\
                   x_SetExplicit_SetExplicitVarSize_tuple2_SetExplicitVarSizeWithDefault[1,
                                                                                         v__0,
                                                                                         v__1]
                   =
                   2)
            /\
            (exists v__1 : int(1..2)
                 . x_SetExplicit_SetExplicitVarSize_tuple2_SetExplicitVarSizeWithDefault[1,
                                                                                         v__0,
                                                                                         v__1]
                   !=
                   1
                   /\
                   x_SetExplicit_SetExplicitVarSize_tuple2_SetExplicitVarSizeWithDefault[1,
                                                                                         v__0,
                                                                                         v__1]
                   =
                   3))),
    forAll v__0 : int(1..2)
        . x_SetExplicit_SetExplicitVarSize_tuple1[1, v__0]
          ->
          (exists v__1 : int(1..2)
               . x_SetExplicit_SetExplicitVarSize_tuple2_SetExplicitVarSizeWithDefault[1,
                                                                                       v__0,
                                                                                       v__1]
                 !=
                 1
                 /\
                 x_SetExplicit_SetExplicitVarSize_tuple2_SetExplicitVarSizeWithDefault[1,
                                                                                       v__0,
                                                                                       v__1]
                 =
                 2)
          /\
          (exists v__1 : int(1..2)
               . x_SetExplicit_SetExplicitVarSize_tuple2_SetExplicitVarSizeWithDefault[1,
                                                                                       v__0,
                                                                                       v__1]
                 !=
                 1
                 /\
                 x_SetExplicit_SetExplicitVarSize_tuple2_SetExplicitVarSizeWithDefault[1,
                                                                                       v__0,
                                                                                       v__1]
                 =
                 3)
          /\
          (forAll v__1 : int(1..2)
               . x_SetExplicit_SetExplicitVarSize_tuple2_SetExplicitVarSizeWithDefault[1,
                                                                                       v__0,
                                                                                       v__1]
                 !=
                 1
                 ->
                 2
                 =
                 x_SetExplicit_SetExplicitVarSize_tuple2_SetExplicitVarSizeWithDefault[1,
                                                                                       v__0,
                                                                                       v__1]
                 \/
                 3
                 =
                 x_SetExplicit_SetExplicitVarSize_tuple2_SetExplicitVarSizeWithDefault[1,
                                                                                       v__0,
                                                                                       v__1])
          \/
          (exists v__1 : int(1..2)
               . x_SetExplicit_SetExplicitVarSize_tuple2_SetExplicitVarSizeWithDefault[1,
                                                                                       v__0,
                                                                                       v__1]
                 !=
                 1
                 /\
                 x_SetExplicit_SetExplicitVarSize_tuple2_SetExplicitVarSizeWithDefault[1,
                                                                                       v__0,
                                                                                       v__1]
                 =
                 2)
          /\
          (forAll v__1 : int(1..2)
               . x_SetExplicit_SetExplicitVarSize_tuple2_SetExplicitVarSizeWithDefault[1,
                                                                                       v__0,
                                                                                       v__1]
                 !=
                 1
                 ->
                 2
                 =
                 x_SetExplicit_SetExplicitVarSize_tuple2_SetExplicitVarSizeWithDefault[1,
                                                                                       v__0,
                                                                                       v__1]),
    forAll v__0 : int(1..2)
        . (x_SetExplicit_SetExplicitVarSize_tuple2_SetExplicitVarSizeWithDefault[1,
                                                                                 v__0,
                                                                                 1]
           !=
           1
           /\
           x_SetExplicit_SetExplicitVarSize_tuple2_SetExplicitVarSizeWithDefault[1,
                                                                                 v__0,
                                                                                 2]
           !=
           1
           ->
           x_SetExplicit_SetExplicitVarSize_tuple2_SetExplicitVarSizeWithDefault[1,
                                                                                 v__0,
                                                                                 1]
           <
           x_SetExplicit_SetExplicitVarSize_tuple2_SetExplicitVarSizeWithDefault[1,
                                                                                 v__0,
                                                                                 2])
          /\
          x_SetExplicit_SetExplicitVarSize_tuple2_SetExplicitVarSizeWithDefault[1,
                                                                                v__0,
                                                                                1]
          <=
          x_SetExplicit_SetExplicitVarSize_tuple2_SetExplicitVarSizeWithDefault[1,
                                                                                v__0,
                                                                                2],
    forAll v__0 : int(1..2)
        . (sum v__1 : int(1..2)
               . x_SetExplicit_SetExplicitVarSize_tuple2_SetExplicitVarSizeWithDefault[1,
                                                                                       v__0,
                                                                                       v__1]
                 !=
                 1)
          >=
          1
