files/upTests/set-of-sets_nested_literals/0002.eprime.solution
language ESSENCE' 1.0
$ minion Nodes: 1
$ minion TotalTime: 0.003427
$ Savile Row TotalTime: 1.391
letting x_SetExplicit_SetExplicitVarSize_tuple1 be [[true, true;int(1..2)];int(1..1)]
letting x_SetExplicit_SetExplicitVarSize_tuple2_SetExplicitVarSizeWithDefault be [[[1, 2;int(1..2)], 
[2, 3;int(1..2)];int(1..2)];int(1..1)]
